(set-option :produce-models true); benchmark generated from python API
(set-info :status unknown)
(declare-fun l_1_0_9 () Real)
(declare-fun l_1_0_8 () Real)
(declare-fun l_1_0_7 () Real)
(declare-fun l_1_0_6 () Real)
(declare-fun l_1_0_5 () Real)
(declare-fun l_1_0_4 () Real)
(declare-fun l_1_0_3 () Real)
(declare-fun l_1_0_2 () Real)
(declare-fun l_1_0_1 () Real)
(declare-fun _a_0_ () Real)
(declare-fun l_1_0_15 () Real)
(declare-fun _a_1_ () Real)
(declare-fun l_1_0_17 () Real)
(declare-fun l_1_0_14 () Real)
(declare-fun l_1_0_16 () Real)
(declare-fun l_1_0_13 () Real)
(declare-fun l_1_0_12 () Real)
(declare-fun _a_2_ () Real)
(declare-fun l_1_0_11 () Real)
(declare-fun l_1_0_10 () Real)
(declare-fun _a_3_ () Real)
(declare-fun _a_4_ () Real)
(declare-fun _a_5_ () Real)
(declare-fun l_1_0_18 () Real)
(declare-fun _a_6_ () Real)
(declare-fun l_1_1_9 () Real)
(declare-fun l_1_1_8 () Real)
(declare-fun l_1_1_6 () Real)
(declare-fun l_1_1_5 () Real)
(declare-fun l_1_1_2 () Real)
(declare-fun l_1_1_15 () Real)
(declare-fun l_1_1_14 () Real)
(declare-fun l_1_1_13 () Real)
(declare-fun l_1_1_12 () Real)
(declare-fun l_1_1_11 () Real)
(declare-fun l_1_1_7 () Real)
(declare-fun l_1_1_4 () Real)
(declare-fun l_1_1_3 () Real)
(declare-fun l_1_1_10 () Real)
(declare-fun l_1_1_1 () Real)
(declare-fun l_1_1_23 () Real)
(declare-fun l_1_1_20 () Real)
(declare-fun l_1_1_22 () Real)
(declare-fun l_1_1_19 () Real)
(declare-fun l_1_1_21 () Real)
(declare-fun l_1_1_18 () Real)
(declare-fun l_1_1_17 () Real)
(declare-fun l_1_1_16 () Real)
(declare-fun l_1_1_24 () Real)
(declare-fun l_1_2_9 () Real)
(declare-fun l_1_2_7 () Real)
(declare-fun l_1_2_6 () Real)
(declare-fun l_1_2_5 () Real)
(declare-fun l_1_2_2 () Real)
(declare-fun l_1_2_15 () Real)
(declare-fun l_1_2_14 () Real)
(declare-fun l_1_2_13 () Real)
(declare-fun l_1_2_11 () Real)
(declare-fun l_1_2_1 () Real)
(declare-fun l_1_2_8 () Real)
(declare-fun l_1_2_4 () Real)
(declare-fun l_1_2_3 () Real)
(declare-fun l_1_2_12 () Real)
(declare-fun l_1_2_10 () Real)
(declare-fun l_1_2_16 () Real)
(declare-fun l_1_2_18 () Real)
(declare-fun l_1_2_19 () Real)
(declare-fun l_1_2_17 () Real)
(declare-fun l_1_2_22 () Real)
(declare-fun l_1_2_21 () Real)
(declare-fun l_1_2_20 () Real)
(declare-fun l_1_2_23 () Real)
(declare-fun l_1_2_27 () Real)
(declare-fun l_1_2_26 () Real)
(declare-fun l_1_2_25 () Real)
(declare-fun l_1_2_28 () Real)
(declare-fun l_1_2_24 () Real)
(declare-fun l_1_2_29 () Real)
(assert
 (let ((?x82 (* l_1_0_9 l_1_0_9)))
 (let ((?x4038 (* (/ 1.0 16.0) l_1_0_7)))
 (let ((?x4041 (* (/ 1.0 4.0) l_1_0_3)))
 (let ((?x4040 (- (- (- (- _a_0_ (* (/ 1.0 4.0) l_1_0_1)) (* (/ 1.0 4.0) l_1_0_2)) ?x4041) l_1_0_4)))
 (= (- (- (- (- (- ?x4040 l_1_0_5) l_1_0_6) ?x4038) l_1_0_8) ?x82) 0.0))))))
(assert
 (= (- _a_1_ (* (* 2.0 l_1_0_15) l_1_0_9)) 0.0))
(assert
 (let ((?x3629 (- (- _a_2_ (* (* 2.0 l_1_0_12) l_1_0_15)) (* (* 2.0 l_1_0_13) l_1_0_16))))
 (= (- ?x3629 (* (* 2.0 l_1_0_14) l_1_0_17)) 0.0)))
(assert
 (let ((?x2694 (- (- _a_3_ (* (* 2.0 l_1_0_10) l_1_0_12)) (* (* 2.0 l_1_0_11) l_1_0_13))))
 (= ?x2694 0.0)))
(assert
 (let ((?x3925 (* (/ 1.0 2.0) l_1_0_7)))
 (let ((?x66 (* l_1_0_11 l_1_0_11)))
 (let ((?x2335 (+ (- (- (+ _a_4_ l_1_0_1) (* l_1_0_10 l_1_0_10)) ?x66) l_1_0_2)))
 (= (+ (+ ?x2335 l_1_0_3) ?x3925) 0.0)))))
(assert
 (let ((?x3925 (* (/ 1.0 2.0) l_1_0_7)))
 (let ((?x2163 (* l_1_0_14 l_1_0_14)))
 (let ((?x2161 (* l_1_0_13 l_1_0_13)))
 (let ((?x3911 (+ (- (- (- (+ _a_5_ l_1_0_1) (* l_1_0_12 l_1_0_12)) ?x2161) ?x2163) l_1_0_2)))
 (= (+ (+ ?x3911 l_1_0_3) ?x3925) 0.0))))))
(assert
 (let ((?x3925 (* (/ 1.0 2.0) l_1_0_7)))
 (let ((?x3876 (* l_1_0_18 l_1_0_18)))
 (let ((?x1765 (* l_1_0_17 l_1_0_17)))
 (let ((?x3897 (* l_1_0_16 l_1_0_16)))
 (let ((?x3877 (- (- (- (- (+ _a_6_ l_1_0_1) (* l_1_0_15 l_1_0_15)) ?x3897) ?x1765) ?x3876)))
 (= (+ (+ (+ ?x3877 l_1_0_2) l_1_0_3) ?x3925) 0.0)))))))
(assert
 (= (- l_1_0_7) 0.0))
(assert
 (= (* (- 2.0) l_1_0_7) 0.0))
(assert
 (= (* (- 2.0) l_1_0_7) 0.0))
(assert
 (= (- l_1_0_7) 0.0))
(assert
 (= (* (- 2.0) l_1_0_7) 0.0))
(assert
 (= (- l_1_0_7) 0.0))
(assert
 (= (* (* (- 2.0) l_1_0_10) l_1_0_9) 0.0))
(assert
 (= (* (* (- 2.0) l_1_0_12) l_1_0_9) 0.0))
(assert
 (let ((?x3785 (- (* (* (- 2.0) l_1_0_10) l_1_0_15) (* (* 2.0 l_1_0_11) l_1_0_16))))
 (= ?x3785 0.0)))
(assert
 (>= l_1_0_1 0.0))
(assert
 (>= l_1_0_2 0.0))
(assert
 (>= l_1_0_3 0.0))
(assert
 (>= l_1_0_4 0.0))
(assert
 (>= l_1_0_5 0.0))
(assert
 (>= l_1_0_6 0.0))
(assert
 (>= l_1_0_7 0.0))
(assert
 (>= l_1_0_8 0.0))
(assert
 (>= l_1_0_9 0.0))
(assert
 (>= l_1_0_11 0.0))
(assert
 (>= l_1_0_14 0.0))
(assert
 (>= l_1_0_18 0.0))
(assert
 (let ((?x3619 (* 81.0 l_1_1_6)))
 (let ((?x3678 (* 9.0 l_1_1_2)))
 (let ((?x3677 (* l_1_1_15 l_1_1_15)))
 (let ((?x3168 (* 9.0 l_1_1_13)))
 (let ((?x2244 (* 9.0 l_1_1_11)))
 (let ((?x2242 (* _a_0_ l_1_1_7)))
 (let ((?x2238 (* _a_0_ l_1_1_3)))
 (let ((?x2239 (- (+ (* (- _a_0_) l_1_1_1) (* (* 9.0 _a_0_) l_1_1_10)) ?x2238)))
 (let ((?x3675 (- (+ (- (+ ?x2239 (* (* 9.0 _a_0_) l_1_1_4)) ?x2242) ?x2244) l_1_1_12)))
 (let ((?x3622 (- (- (+ (- (- (+ ?x3675 ?x3168) l_1_1_14) ?x3677) ?x3678) l_1_1_5) ?x3619)))
 (= (- (- ?x3622 l_1_1_8) (* (* l_1_1_9 _a_0_) _a_0_)) 0.0))))))))))))
(assert
 (let ((?x3392 (* _a_2_ l_1_1_7)))
 (let ((?x3390 (* _a_2_ l_1_1_3)))
 (let ((?x3388 (* _a_2_ l_1_1_1)))
 (let ((?x3389 (+ (- (* (* (* (- 2.0) _a_0_) _a_2_) l_1_1_9) ?x3388) (* (* 9.0 _a_2_) l_1_1_10))))
 (let ((?x3352 (- (- (+ (- ?x3389 ?x3390) (* (* 9.0 _a_2_) l_1_1_4)) ?x3392) (* (* 2.0 l_1_1_18) l_1_1_21))))
 (let ((?x3297 (- (- ?x3352 (* (* 2.0 l_1_1_19) l_1_1_22)) (* (* 2.0 l_1_1_20) l_1_1_23))))
 (= (- ?x3297 1.0) 0.0))))))))
(assert
 (let ((?x3027 (- (* (* (- 2.0) l_1_1_16) l_1_1_21) (* (* 2.0 l_1_1_17) l_1_1_22))))
 (= (- ?x3027 1.0) 0.0)))
(assert
 (let ((?x2926 (* _a_3_ l_1_1_7)))
 (let ((?x2951 (* _a_3_ l_1_1_3)))
 (let ((?x2983 (* _a_3_ l_1_1_1)))
 (let ((?x2949 (+ (- (* (* (* (- 2.0) _a_0_) _a_3_) l_1_1_9) ?x2983) (* (* 9.0 _a_3_) l_1_1_10))))
 (let ((?x2928 (- (- (+ (- ?x2949 ?x2951) (* (* 9.0 _a_3_) l_1_1_4)) ?x2926) (* (* 2.0 l_1_1_16) l_1_1_18))))
 (= (- (- ?x2928 (* (* 2.0 l_1_1_17) l_1_1_19)) 1.0) 0.0)))))))
(assert
 (let ((?x2777 (* _a_1_ l_1_1_7)))
 (let ((?x2774 (* _a_1_ l_1_1_3)))
 (let ((?x2810 (* _a_1_ l_1_1_1)))
 (let ((?x1958 (+ (- (* (* (* (- 2.0) _a_0_) _a_1_) l_1_1_9) ?x2810) (* (* 9.0 _a_1_) l_1_1_10))))
 (let ((?x2752 (- (- (+ (- ?x1958 ?x2774) (* (* 9.0 _a_1_) l_1_1_4)) ?x2777) (* (* 2.0 l_1_1_15) l_1_1_21))))
 (= (+ ?x2752 2.0) 0.0)))))))
(assert
 (= (+ (* (* (- 2.0) l_1_1_15) l_1_1_18) 2.0) 0.0))
(assert
 (= (+ (* (* (- 2.0) l_1_1_15) l_1_1_16) 2.0) 0.0))
(assert
 (let ((?x2530 (* 18.0 l_1_1_6)))
 (let ((?x2525 (* l_1_1_24 l_1_1_24)))
 (let ((?x2523 (* l_1_1_23 l_1_1_23)))
 (let ((?x2521 (* l_1_1_22 l_1_1_22)))
 (let ((?x2640 (* l_1_1_21 l_1_1_21)))
 (let ((?x2633 (* _a_6_ l_1_1_7)))
 (let ((?x100 (- (- (- (* (- _a_6_) l_1_1_1) (* _a_6_ l_1_1_3)) ?x2633) (* l_1_1_10 (- _a_0_ (* 9.0 _a_6_))))))
 (let ((?x2524 (- (- (- (- (- (- ?x100 l_1_1_11) l_1_1_13) l_1_1_2) ?x2640) ?x2521) ?x2523)))
 (let ((?x2531 (+ (- (- ?x2524 ?x2525) (* l_1_1_4 (- _a_0_ (* 9.0 _a_6_)))) ?x2530)))
 (let ((?x2537 (- ?x2531 (* l_1_1_9 (+ (* (* 2.0 _a_0_) _a_6_) (* _a_1_ _a_1_))))))
 (= (+ ?x2537 1.0) 0.0))))))))))))
(assert
 (let ((?x2530 (* 18.0 l_1_1_6)))
 (let ((?x2188 (* l_1_1_20 l_1_1_20)))
 (let ((?x2185 (* l_1_1_19 l_1_1_19)))
 (let ((?x2183 (* l_1_1_18 l_1_1_18)))
 (let ((?x2175 (* _a_5_ l_1_1_7)))
 (let ((?x2173 (* _a_5_ l_1_1_3)))
 (let ((?x2170 (* _a_5_ l_1_1_1)))
 (let ((?x2176 (- (- (- (* (* (* (- 2.0) _a_0_) _a_5_) l_1_1_9) ?x2170) ?x2173) ?x2175)))
 (let ((?x2182 (- (- (- ?x2176 (* l_1_1_10 (- _a_0_ (* 9.0 _a_5_)))) l_1_1_11) l_1_1_13)))
 (let ((?x2100 (- (- (- (- (- ?x2182 ?x2183) ?x2185) l_1_1_2) ?x2188) (* l_1_1_4 (- _a_0_ (* 9.0 _a_5_))))))
 (= (+ (+ ?x2100 ?x2530) 1.0) 0.0))))))))))))
(assert
 (let ((?x2530 (* 18.0 l_1_1_6)))
 (let ((?x32 (* l_1_1_17 l_1_1_17)))
 (let ((?x34 (* l_1_1_16 l_1_1_16)))
 (let ((?x44 (* _a_4_ l_1_1_7)))
 (let ((?x47 (* _a_4_ l_1_1_3)))
 (let ((?x51 (* _a_4_ l_1_1_1)))
 (let ((?x1923 (- (- (- (* (* (* (- 2.0) _a_0_) _a_4_) l_1_1_9) ?x51) ?x47) ?x44)))
 (let ((?x1920 (- (- (- ?x1923 (* l_1_1_10 (- _a_0_ (* 9.0 _a_4_)))) l_1_1_11) l_1_1_13)))
 (let ((?x854 (- (- (- (- ?x1920 ?x34) ?x32) l_1_1_2) (* l_1_1_4 (- _a_0_ (* 9.0 _a_4_))))))
 (= (+ (+ ?x854 ?x2530) 1.0) 0.0)))))))))))
(assert
 (let ((?x2703 (* _a_1_ l_1_1_4)))
 (let ((?x2698 (* _a_1_ l_1_1_10)))
 (= (- (- (* (* (* (- 2.0) _a_1_) _a_6_) l_1_1_9) ?x2698) ?x2703) 0.0))))
(assert
 (let ((?x3222 (* _a_2_ l_1_1_4)))
 (let ((?x3264 (* _a_2_ l_1_1_10)))
 (= (- (- (* (* (* (- 2.0) _a_2_) _a_6_) l_1_1_9) ?x3264) ?x3222) 0.0))))
(assert
 (let ((?x2852 (* _a_3_ l_1_1_4)))
 (let ((?x2876 (* _a_3_ l_1_1_10)))
 (= (- (- (* (* (* (- 2.0) _a_3_) _a_6_) l_1_1_9) ?x2876) ?x2852) 0.0))))
(assert
 (let ((?x1605 (* 2.0 l_1_1_6)))
 (let ((?x1584 (- (* (* (* (- 2.0) _a_4_) _a_6_) l_1_1_9) (* l_1_1_10 (+ _a_4_ _a_6_)))))
 (= (- (- ?x1584 (* l_1_1_4 (+ _a_4_ _a_6_))) ?x1605) 0.0))))
(assert
 (let ((?x1605 (* 2.0 l_1_1_6)))
 (let ((?x1462 (- (* (- l_1_1_10) (+ _a_5_ _a_6_)) (* l_1_1_4 (+ _a_5_ _a_6_)))))
 (let ((?x1469 (- (- ?x1462 ?x1605) (* l_1_1_9 (+ (* _a_2_ _a_2_) (* (* 2.0 _a_5_) _a_6_))))))
 (= ?x1469 0.0)))))
(assert
 (let ((?x1035 (- (- (- (* (- _a_6_) l_1_1_10) (* _a_6_ l_1_1_4)) l_1_1_6) (* (* l_1_1_9 _a_6_) _a_6_))))
 (= ?x1035 0.0)))
(assert
 (let ((?x2703 (* _a_1_ l_1_1_4)))
 (let ((?x2698 (* _a_1_ l_1_1_10)))
 (= (- (- (* (* (* (- 2.0) _a_1_) _a_5_) l_1_1_9) ?x2698) ?x2703) 0.0))))
(assert
 (let ((?x3222 (* _a_2_ l_1_1_4)))
 (let ((?x3264 (* _a_2_ l_1_1_10)))
 (= (- (- (* (* (* (- 2.0) _a_2_) _a_5_) l_1_1_9) ?x3264) ?x3222) 0.0))))
(assert
 (let ((?x2852 (* _a_3_ l_1_1_4)))
 (let ((?x2876 (* _a_3_ l_1_1_10)))
 (= (- (- (* (* (* (- 2.0) _a_3_) _a_5_) l_1_1_9) ?x2876) ?x2852) 0.0))))
(assert
 (let ((?x1605 (* 2.0 l_1_1_6)))
 (let ((?x939 (- (* (- l_1_1_10) (+ _a_4_ _a_5_)) (* l_1_1_4 (+ _a_4_ _a_5_)))))
 (let ((?x949 (- (- ?x939 ?x1605) (* l_1_1_9 (+ (* _a_3_ _a_3_) (* (* 2.0 _a_4_) _a_5_))))))
 (= ?x949 0.0)))))
(assert
 (let ((?x888 (- (- (- (* (- _a_5_) l_1_1_10) (* _a_5_ l_1_1_4)) l_1_1_6) (* (* l_1_1_9 _a_5_) _a_5_))))
 (= ?x888 0.0)))
(assert
 (let ((?x2703 (* _a_1_ l_1_1_4)))
 (let ((?x2698 (* _a_1_ l_1_1_10)))
 (= (- (- (* (* (* (- 2.0) _a_1_) _a_4_) l_1_1_9) ?x2698) ?x2703) 0.0))))
(assert
 (let ((?x3222 (* _a_2_ l_1_1_4)))
 (let ((?x3264 (* _a_2_ l_1_1_10)))
 (= (- (- (* (* (* (- 2.0) _a_2_) _a_4_) l_1_1_9) ?x3264) ?x3222) 0.0))))
(assert
 (let ((?x2852 (* _a_3_ l_1_1_4)))
 (let ((?x2876 (* _a_3_ l_1_1_10)))
 (= (- (- (* (* (* (- 2.0) _a_3_) _a_4_) l_1_1_9) ?x2876) ?x2852) 0.0))))
(assert
 (let ((?x573 (- (- (- (* (- _a_4_) l_1_1_10) (* _a_4_ l_1_1_4)) l_1_1_6) (* (* l_1_1_9 _a_4_) _a_4_))))
 (= ?x573 0.0)))
(assert
 (= (* (* (* (- 2.0) _a_1_) _a_2_) l_1_1_9) 0.0))
(assert
 (= (* (* (* (- 2.0) _a_1_) _a_3_) l_1_1_9) 0.0))
(assert
 (= (* (* (* (- 2.0) _a_2_) _a_3_) l_1_1_9) 0.0))
(assert
 (>= l_1_1_1 0.0))
(assert
 (>= l_1_1_2 0.0))
(assert
 (>= l_1_1_3 0.0))
(assert
 (>= l_1_1_4 0.0))
(assert
 (>= l_1_1_5 0.0))
(assert
 (>= l_1_1_6 0.0))
(assert
 (>= l_1_1_7 0.0))
(assert
 (>= l_1_1_8 0.0))
(assert
 (>= l_1_1_9 0.0))
(assert
 (>= l_1_1_10 0.0))
(assert
 (>= l_1_1_11 0.0))
(assert
 (>= l_1_1_12 0.0))
(assert
 (>= l_1_1_13 0.0))
(assert
 (>= l_1_1_14 0.0))
(assert
 (>= l_1_1_15 0.0))
(assert
 (>= l_1_1_17 0.0))
(assert
 (>= l_1_1_20 0.0))
(assert
 (>= l_1_1_24 0.0))
(assert
 (let ((?x482 (* 81.0 l_1_2_9)))
 (let ((?x490 (* 9.0 l_1_2_5)))
 (let ((?x489 (* 9.0 l_1_2_2)))
 (let ((?x13 (* l_1_2_15 l_1_2_15)))
 (let ((?x512 (* 9.0 l_1_2_13)))
 (let ((?x16 (* _a_0_ l_1_2_8)))
 (let ((?x18 (* _a_0_ l_1_2_4)))
 (let ((?x15 (* _a_0_ l_1_2_3)))
 (let ((?x539 (- (* (* (- 9.0) _a_0_) l_1_2_10) (* (* 9.0 _a_0_) l_1_2_12))))
 (let ((?x511 (- (+ (- (- (- ?x539 ?x15) ?x18) ?x16) _a_0_) (* (* l_1_2_1 _a_0_) _a_0_))))
 (let ((?x491 (- (- (- (- (- (- ?x511 l_1_2_11) ?x512) l_1_2_14) ?x13) ?x489) ?x490)))
 (= (- (- (- ?x491 l_1_2_6) l_1_2_7) ?x482) 0.0)))))))))))))
(assert
 (let ((?x415 (* _a_1_ l_1_2_8)))
 (let ((?x150 (* _a_1_ l_1_2_4)))
 (let ((?x398 (* _a_1_ l_1_2_3)))
 (let ((?x436 (- (* (* (* (- 2.0) _a_0_) _a_1_) l_1_2_1) (* (* 9.0 _a_1_) l_1_2_10))))
 (let ((?x416 (- (- (- (- ?x436 (* (* 9.0 _a_1_) l_1_2_12)) ?x398) ?x150) ?x415)))
 (= (- (+ ?x416 _a_1_) (* (* 2.0 l_1_2_15) l_1_2_16)) 0.0)))))))
(assert
 (= (- (* (- (/ 1.0 10.0)) _a_1_) (* (* 2.0 l_1_2_15) l_1_2_18)) 0.0))
(assert
 (let ((?x233 (* (/ 1.0 5.0) _a_6_)))
 (let ((?x227 (* _a_2_ l_1_2_8)))
 (let ((?x225 (* _a_2_ l_1_2_4)))
 (let ((?x273 (* _a_2_ l_1_2_3)))
 (let ((?x270 (- (* (* (* (- 2.0) _a_0_) _a_2_) l_1_2_1) (* (* 9.0 _a_2_) l_1_2_10))))
 (let ((?x229 (- (- (- (- ?x270 (* (* 9.0 _a_2_) l_1_2_12)) ?x273) ?x225) ?x227)))
 (let ((?x172 (- (- (- (+ ?x229 _a_2_) ?x233) (* (* 2.0 l_1_2_16) l_1_2_18)) (* (* 2.0 l_1_2_17) l_1_2_19))))
 (= ?x172 0.0)))))))))
(assert
 (let ((?x1699 (- (- (* (- (/ 1.0 10.0)) _a_2_) (* (* 2.0 l_1_2_16) l_1_2_21)) (* (* 2.0 l_1_2_17) l_1_2_22))))
 (= ?x1699 0.0)))
(assert
 (let ((?x2355 (* 18.0 l_1_2_9)))
 (let ((?x3376 (* l_1_2_20 l_1_2_20)))
 (let ((?x3369 (* l_1_2_19 l_1_2_19)))
 (let ((?x3379 (* l_1_2_18 l_1_2_18)))
 (let ((?x365 (* (/ 1.0 100.0) _a_6_)))
 (let ((?x608 (* _a_5_ l_1_2_8)))
 (let ((?x613 (* _a_5_ l_1_2_4)))
 (let ((?x606 (* _a_5_ l_1_2_3)))
 (let ((?x612 (- (- (* (* (* (- 2.0) _a_0_) _a_5_) l_1_2_1) (* (/ 1.0 10.0) _a_2_)) ?x606)))
 (let ((?x2082 (- (+ (+ (- (- ?x612 ?x613) ?x608) _a_5_) ?x365) (* l_1_2_10 (+ (- _a_0_) (* 9.0 _a_5_))))))
 (let ((?x3370 (+ (- ?x2082 (* l_1_2_12 (+ (- _a_0_) (* 9.0 _a_5_)))) l_1_2_13)))
 (let ((?x3358 (+ (+ (- (+ (- (- ?x3370 ?x3379) ?x3369) l_1_2_2) ?x3376) l_1_2_5) ?x2355)))
 (= ?x3358 0.0))))))))))))))
(assert
 (let ((?x2365 (* (/ 1.0 5.0) _a_5_)))
 (let ((?x2363 (* _a_3_ l_1_2_8)))
 (let ((?x2361 (* _a_3_ l_1_2_4)))
 (let ((?x1012 (* _a_3_ l_1_2_3)))
 (let ((?x1008 (- (+ (* (* (* (- 2.0) _a_0_) _a_3_) l_1_2_1) (* (/ 1.0 100.0) _a_2_)) (* (* 9.0 _a_3_) l_1_2_10))))
 (let ((?x2364 (- (- (- (- ?x1008 (* (* 9.0 _a_3_) l_1_2_12)) ?x1012) ?x2361) ?x2363)))
 (let ((?x2192 (- (- (- ?x2364 ?x2365) (* (* 2.0 l_1_2_18) l_1_2_21)) (* (* 2.0 l_1_2_19) l_1_2_22))))
 (= (- ?x2192 (* (* 2.0 l_1_2_20) l_1_2_23)) 0.0)))))))))
(assert
 (let ((?x2311 (- (- _a_3_ (* (* 2.0 l_1_2_18) l_1_2_25)) (* (* 2.0 l_1_2_19) l_1_2_26))))
 (= (- ?x2311 (* (* 2.0 l_1_2_20) l_1_2_27)) 0.0)))
(assert
 (let ((?x1194 (- (- (* (- (/ 1.0 10.0)) _a_3_) (* (* 2.0 l_1_2_21) l_1_2_25)) (* (* 2.0 l_1_2_22) l_1_2_26))))
 (let ((?x2757 (- (- ?x1194 (* (* 2.0 l_1_2_23) l_1_2_27)) (* (* 2.0 l_1_2_24) l_1_2_28))))
 (= ?x2757 0.0))))
(assert
 (let ((?x3798 (* l_1_2_29 l_1_2_29)))
 (let ((?x3796 (* l_1_2_28 l_1_2_28)))
 (let ((?x3794 (* l_1_2_27 l_1_2_27)))
 (let ((?x3795 (- (- (- _a_4_ (* l_1_2_25 l_1_2_25)) (* l_1_2_26 l_1_2_26)) ?x3794)))
 (= (- (- ?x3795 ?x3796) ?x3798) 0.0))))))
(assert
 (let ((?x2355 (* 18.0 l_1_2_9)))
 (let ((?x3648 (* l_1_2_24 l_1_2_24)))
 (let ((?x3646 (* l_1_2_23 l_1_2_23)))
 (let ((?x3663 (* l_1_2_22 l_1_2_22)))
 (let ((?x3647 (* l_1_2_21 l_1_2_21)))
 (let ((?x3401 (* (/ 1.0 100.0) _a_5_)))
 (let ((?x3399 (* _a_4_ l_1_2_8)))
 (let ((?x3397 (* _a_4_ l_1_2_4)))
 (let ((?x3395 (* _a_4_ l_1_2_3)))
 (let ((?x3400 (- (- (- (* (* (* (- 2.0) _a_0_) _a_4_) l_1_2_1) ?x3395) ?x3397) ?x3399)))
 (let ((?x3402 (- (- (+ ?x3400 ?x3401) (* l_1_2_10 (+ (- _a_0_) (* 9.0 _a_4_)))) (* l_1_2_12 (+ (- _a_0_) (* 9.0 _a_4_))))))
 (let ((?x3657 (- (- (- (- (+ (+ ?x3402 l_1_2_13) l_1_2_2) ?x3647) ?x3663) ?x3646) ?x3648)))
 (= (+ (+ ?x3657 l_1_2_5) ?x2355) 0.0))))))))))))))
(assert
 (let ((?x2355 (* 18.0 l_1_2_9)))
 (let ((?x2666 (* l_1_2_17 l_1_2_17)))
 (let ((?x2650 (* l_1_2_16 l_1_2_16)))
 (let ((?x3366 (* _a_6_ l_1_2_8)))
 (let ((?x2642 (+ (- (- (* (- _a_6_) l_1_2_3) (* _a_6_ l_1_2_4)) ?x3366) _a_6_)))
 (let ((?x2643 (- ?x2642 (* l_1_2_1 (+ (* (* 2.0 _a_0_) _a_6_) (* _a_1_ _a_1_))))))
 (let ((?x2648 (- (- ?x2643 (* l_1_2_10 (+ (- _a_0_) (* 9.0 _a_6_)))) (* l_1_2_12 (+ (- _a_0_) (* 9.0 _a_6_))))))
 (let ((?x1683 (+ (+ (+ (- (- (+ ?x2648 l_1_2_13) ?x2650) ?x2666) l_1_2_2) l_1_2_5) ?x2355)))
 (= ?x1683 0.0))))))))))
(assert
 (= (* (* (* (- 2.0) _a_1_) _a_2_) l_1_2_1) 0.0))
(assert
 (= (* (* (* (- 2.0) _a_1_) _a_3_) l_1_2_1) 0.0))
(assert
 (let ((?x30 (* _a_1_ l_1_2_12)))
 (let ((?x341 (* _a_1_ l_1_2_10)))
 (= (+ (+ (* (* (* (- 2.0) _a_1_) _a_4_) l_1_2_1) ?x341) ?x30) 0.0))))
(assert
 (let ((?x30 (* _a_1_ l_1_2_12)))
 (let ((?x341 (* _a_1_ l_1_2_10)))
 (= (+ (+ (* (* (* (- 2.0) _a_1_) _a_5_) l_1_2_1) ?x341) ?x30) 0.0))))
(assert
 (let ((?x30 (* _a_1_ l_1_2_12)))
 (let ((?x341 (* _a_1_ l_1_2_10)))
 (= (+ (+ (* (* (* (- 2.0) _a_1_) _a_6_) l_1_2_1) ?x341) ?x30) 0.0))))
(assert
 (let ((?x966 (* 2.0 l_1_2_9)))
 (let ((?x1464 (* _a_2_ _a_2_)))
 (let ((?x1467 (+ ?x1464 (* (* 2.0 _a_5_) _a_6_))))
 (let ((?x4003 (- l_1_2_1)))
 (let ((?x958 (- (- (* ?x4003 ?x1467) (* l_1_2_10 (- (- _a_5_) _a_6_))) (* l_1_2_12 (- (- _a_5_) _a_6_)))))
 (= (- ?x958 ?x966) 0.0)))))))
(assert
 (= (* (* (* (- 2.0) _a_2_) _a_3_) l_1_2_1) 0.0))
(assert
 (let ((?x184 (* _a_2_ l_1_2_12)))
 (let ((?x178 (* _a_2_ l_1_2_10)))
 (= (+ (+ (* (* (* (- 2.0) _a_2_) _a_4_) l_1_2_1) ?x178) ?x184) 0.0))))
(assert
 (let ((?x184 (* _a_2_ l_1_2_12)))
 (let ((?x178 (* _a_2_ l_1_2_10)))
 (= (+ (+ (* (* (* (- 2.0) _a_2_) _a_5_) l_1_2_1) ?x178) ?x184) 0.0))))
(assert
 (let ((?x184 (* _a_2_ l_1_2_12)))
 (let ((?x178 (* _a_2_ l_1_2_10)))
 (= (+ (+ (* (* (* (- 2.0) _a_2_) _a_6_) l_1_2_1) ?x178) ?x184) 0.0))))
(assert
 (let ((?x966 (* 2.0 l_1_2_9)))
 (let ((?x942 (* _a_3_ _a_3_)))
 (let ((?x946 (+ ?x942 (* (* 2.0 _a_4_) _a_5_))))
 (let ((?x4003 (- l_1_2_1)))
 (let ((?x622 (- (- (* ?x4003 ?x946) (* l_1_2_10 (- (- _a_4_) _a_5_))) (* l_1_2_12 (- (- _a_4_) _a_5_)))))
 (= (- ?x622 ?x966) 0.0)))))))
(assert
 (let ((?x2060 (* _a_3_ l_1_2_12)))
 (let ((?x2053 (* _a_3_ l_1_2_10)))
 (= (+ (+ (* (* (* (- 2.0) _a_3_) _a_4_) l_1_2_1) ?x2053) ?x2060) 0.0))))
(assert
 (let ((?x2060 (* _a_3_ l_1_2_12)))
 (let ((?x2053 (* _a_3_ l_1_2_10)))
 (= (+ (+ (* (* (* (- 2.0) _a_3_) _a_5_) l_1_2_1) ?x2053) ?x2060) 0.0))))
(assert
 (let ((?x2060 (* _a_3_ l_1_2_12)))
 (let ((?x2053 (* _a_3_ l_1_2_10)))
 (= (+ (+ (* (* (* (- 2.0) _a_3_) _a_6_) l_1_2_1) ?x2053) ?x2060) 0.0))))
(assert
 (let ((?x2969 (- (+ (* _a_4_ l_1_2_10) (* _a_4_ l_1_2_12)) (* (* l_1_2_1 _a_4_) _a_4_))))
 (= (- ?x2969 l_1_2_9) 0.0)))
(assert
 (let ((?x966 (* 2.0 l_1_2_9)))
 (let ((?x3327 (- (* (* (* (- 2.0) _a_4_) _a_6_) l_1_2_1) (* l_1_2_10 (- (- _a_4_) _a_6_)))))
 (= (- (- ?x3327 (* l_1_2_12 (- (- _a_4_) _a_6_))) ?x966) 0.0))))
(assert
 (let ((?x2555 (* _a_5_ l_1_2_12)))
 (let ((?x2472 (* _a_5_ l_1_2_10)))
 (let ((?x2477 (+ ?x2472 ?x2555)))
 (= (- (- ?x2477 (* (* l_1_2_1 _a_5_) _a_5_)) l_1_2_9) 0.0)))))
(assert
 (let ((?x3686 (* _a_6_ l_1_2_12)))
 (let ((?x2836 (* _a_6_ l_1_2_10)))
 (let ((?x1235 (+ ?x2836 ?x3686)))
 (= (- (- ?x1235 (* (* l_1_2_1 _a_6_) _a_6_)) l_1_2_9) 0.0)))))
(assert
 (= (* (* (- 2.0) l_1_2_15) l_1_2_21) 0.0))
(assert
 (= (* (* (- 2.0) l_1_2_15) l_1_2_25) 0.0))
(assert
 (let ((?x3101 (- (* (* (- 2.0) l_1_2_16) l_1_2_25) (* (* 2.0 l_1_2_17) l_1_2_26))))
 (= ?x3101 0.0)))
(assert
 (>= l_1_2_1 0.0))
(assert
 (>= l_1_2_2 0.0))
(assert
 (>= l_1_2_3 0.0))
(assert
 (>= l_1_2_4 0.0))
(assert
 (>= l_1_2_5 0.0))
(assert
 (>= l_1_2_6 0.0))
(assert
 (>= l_1_2_7 0.0))
(assert
 (>= l_1_2_8 0.0))
(assert
 (>= l_1_2_9 0.0))
(assert
 (>= l_1_2_10 0.0))
(assert
 (>= l_1_2_11 0.0))
(assert
 (>= l_1_2_12 0.0))
(assert
 (>= l_1_2_13 0.0))
(assert
 (>= l_1_2_14 0.0))
(assert
 (>= l_1_2_15 0.0))
(assert
 (>= l_1_2_17 0.0))
(assert
 (>= l_1_2_20 0.0))
(assert
 (>= l_1_2_24 0.0))
(assert
 (>= l_1_2_29 0.0))
(check-sat)
(get-model)